MARKOV
60
2 2 2 2 2 2 2 2 2 2 2 2 2 2 2 2 2 2 2 2 2 2 2 2 2 2 2 2 2 2 2 2 2 2 2 2 2 2 2 2 2 2 2 2 2 2 2 2 2 2 2 2 2 2 2 2 2 2 2 9

60
3 2 7 19
3 9 13 38
3 10 18 32
3 18 19 22
3 17 34 35
3 0 2 9
3 12 14 29
3 15 23 24
3 6 31 33
3 14 20 38
3 4 17 31
3 5 8 16
3 9 29 34
3 12 23 25
3 8 9 32
3 10 20 27
3 12 22 33
3 0 26 31
3 6 10 29
3 19 26 36
3 9 16 29
3 6 27 30
3 3 29 37
3 3 16 34
3 3 30 38
3 7 12 20
2 17 36
2 7 21
2 18 25
2 9 34
4 13 16 37 39
4 13 16 37 40
4 13 16 37 41
4 13 16 37 42
3 1 30 43
3 1 30 44
3 1 10 45
3 1 10 46
3 5 21 47
3 5 21 48
3 0 23 49
3 0 23 50
4 24 35 36 51
4 24 35 36 52
4 24 35 36 53
4 24 35 36 54
3 11 15 55
3 11 15 56
3 28 33 57
3 28 33 58
4 6 9 34 59
4 9 13 37 59
4 1 10 30 59
4 10 11 18 59
4 2 5 15 59
4 0 9 17 59
4 5 9 24 59
4 11 17 37 59
4 8 10 28 59
1 59

8 0.989826 0.0101743 0.425018 0.574982 0.521668 0.478332 0.205287 0.794713
8 0.510001 0.489999 0.0541249 0.945875 0.770533 0.229467 0.0811087 0.918891
8 0.740315 0.392342 0.259685 0.607658 0.665897 0.0964243 0.334103 0.903576
8 0.388871 0.611129 0.472221 0.527779 0.627305 0.372695 0.336849 0.663151
8 0.00286934 0.997131 0.0396196 0.96038 0.524126 0.475874 0.429006 0.570994
8 0.51938 0.597628 0.48062 0.402372 0.714716 0.626923 0.285284 0.373077
8 0.50962 0.154012 0.438237 0.72494 0.49038 0.845988 0.561763 0.27506
8 0.565478 0.662469 0.442618 0.701398 0.434522 0.337531 0.557382 0.298602
8 0.494666 0.409718 0.505334 0.590282 0.716095 0.0119275 0.283905 0.988073
8 0.84874 0.598796 0.489529 0.403641 0.15126 0.401204 0.510471 0.596359
8 0.664773 0.499355 0.43777 0.469176 0.335227 0.500645 0.56223 0.530824
8 0.145302 0.467847 0.854698 0.532153 0.722317 0.764786 0.277683 0.235214
8 0.736782 0.314022 0.263218 0.685978 0.319759 0.599494 0.680241 0.400506
8 0.647782 0.635244 0.352218 0.364756 0.489029 0.203831 0.510971 0.796169
8 0.280902 0.719098 0.373719 0.626281 0.96498 0.0350201 0.797468 0.202532
8 0.91078 0.587421 0.0892202 0.412579 0.269896 0.72795 0.730104 0.27205
8 0.527259 0.472741 0.566055 0.433945 0.110375 0.889625 0.609317 0.390683
8 0.288793 0.997491 0.711207 0.00250939 0.748846 0.421102 0.251154 0.578898
8 0.397475 0.562407 0.254623 0.762385 0.602525 0.437593 0.745377 0.237615
8 0.895795 0.104205 0.426531 0.573469 0.41756 0.58244 0.552322 0.447678
8 0.497066 0.677872 0.502934 0.322128 0.621695 0.733909 0.378305 0.266091
8 0.362394 0.482036 0.637606 0.517964 0.869062 0.00653686 0.130938 0.993463
8 0.450193 0.549807 0.539242 0.460758 0.158392 0.841608 0.243196 0.756804
8 0.476846 0.702632 0.154607 0.268627 0.523154 0.297368 0.845393 0.731373
8 0.22265 0.498421 0.77735 0.501579 0.444898 0.167587 0.555102 0.832413
8 0.638863 0.71789 0.542285 0.736705 0.361137 0.28211 0.457715 0.263295
4 0.606276 0.391231 0.393724 0.608769
4 0.886627 0.113373 0.0769215 0.923078
4 0.397595 0.602405 0.314359 0.685641
4 0.727938 0.272062 0.333816 0.666184
16 1.0 0.0 1.0 1.0 1.0 1.0 1.0 1.0 0.0 1.0 1.0 1.0 1.0 1.0 1.0 1.0
16 1.0 1.0 1.0 0.0 1.0 1.0 1.0 1.0 1.0 1.0 0.0 1.0 1.0 1.0 1.0 1.0
16 1.0 1.0 1.0 1.0 1.0 0.0 1.0 1.0 1.0 1.0 1.0 1.0 0.0 1.0 1.0 1.0
16 1.0 1.0 1.0 1.0 1.0 1.0 1.0 0.0 1.0 1.0 1.0 1.0 1.0 1.0 0.0 1.0
8 1.0 0.0 1.0 1.0 0.0 1.0 1.0 1.0
8 1.0 1.0 1.0 0.0 1.0 1.0 0.0 1.0
8 1.0 0.0 0.0 1.0 1.0 1.0 1.0 1.0
8 1.0 1.0 1.0 1.0 1.0 0.0 0.0 1.0
8 1.0 0.0 1.0 1.0 0.0 1.0 1.0 1.0
8 1.0 1.0 1.0 0.0 1.0 1.0 0.0 1.0
8 1.0 0.0 1.0 1.0 0.0 1.0 1.0 1.0
8 1.0 1.0 1.0 0.0 1.0 1.0 0.0 1.0
16 1.0 0.0 1.0 1.0 1.0 1.0 1.0 1.0 0.0 1.0 1.0 1.0 1.0 1.0 1.0 1.0
16 1.0 1.0 1.0 0.0 1.0 1.0 1.0 1.0 1.0 1.0 0.0 1.0 1.0 1.0 1.0 1.0
16 1.0 1.0 1.0 1.0 1.0 0.0 1.0 1.0 1.0 1.0 1.0 1.0 0.0 1.0 1.0 1.0
16 1.0 1.0 1.0 1.0 1.0 1.0 1.0 0.0 1.0 1.0 1.0 1.0 1.0 1.0 0.0 1.0
8 1.0 0.0 1.0 1.0 0.0 1.0 1.0 1.0
8 1.0 1.0 1.0 0.0 1.0 1.0 0.0 1.0
8 1.0 0.0 1.0 1.0 0.0 1.0 1.0 1.0
8 1.0 1.0 1.0 0.0 1.0 1.0 0.0 1.0
72 40.0 1.0 1.0 1.0 1.0 1.0 1.0 1.0 1.0 50.0 1.0 1.0 1.0 1.0 1.0 1.0 1.0 1.0 15.0 1.0 1.0 1.0 1.0 1.0 1.0 1.0 1.0 28.0 1.0 1.0 1.0 1.0 1.0 1.0 1.0 1.0 32.0 1.0 1.0 1.0 1.0 1.0 1.0 1.0 1.0 72.0 1.0 1.0 1.0 1.0 1.0 1.0 1.0 1.0 54.0 1.0 1.0 1.0 1.0 1.0 1.0 1.0 1.0 65.0 1.0 1.0 1.0 1.0 1.0 1.0 1.0 1.0
72 1.0 74.0 1.0 1.0 1.0 1.0 1.0 1.0 1.0 1.0 35.0 1.0 1.0 1.0 1.0 1.0 1.0 1.0 1.0 40.0 1.0 1.0 1.0 1.0 1.0 1.0 1.0 1.0 31.0 1.0 1.0 1.0 1.0 1.0 1.0 1.0 1.0 84.0 1.0 1.0 1.0 1.0 1.0 1.0 1.0 1.0 74.0 1.0 1.0 1.0 1.0 1.0 1.0 1.0 1.0 63.0 1.0 1.0 1.0 1.0 1.0 1.0 1.0 1.0 58.0 1.0 1.0 1.0 1.0 1.0 1.0 1.0
72 1.0 1.0 89.0 1.0 1.0 1.0 1.0 1.0 1.0 1.0 1.0 12.0 1.0 1.0 1.0 1.0 1.0 1.0 1.0 1.0 9.0 1.0 1.0 1.0 1.0 1.0 1.0 1.0 1.0 43.0 1.0 1.0 1.0 1.0 1.0 1.0 1.0 1.0 32.0 1.0 1.0 1.0 1.0 1.0 1.0 1.0 1.0 9.0 1.0 1.0 1.0 1.0 1.0 1.0 1.0 1.0 53.0 1.0 1.0 1.0 1.0 1.0 1.0 1.0 1.0 34.0 1.0 1.0 1.0 1.0 1.0 1.0
72 1.0 1.0 1.0 30.0 1.0 1.0 1.0 1.0 1.0 1.0 1.0 1.0 37.0 1.0 1.0 1.0 1.0 1.0 1.0 1.0 1.0 9.0 1.0 1.0 1.0 1.0 1.0 1.0 1.0 1.0 46.0 1.0 1.0 1.0 1.0 1.0 1.0 1.0 1.0 39.0 1.0 1.0 1.0 1.0 1.0 1.0 1.0 1.0 83.0 1.0 1.0 1.0 1.0 1.0 1.0 1.0 1.0 88.0 1.0 1.0 1.0 1.0 1.0 1.0 1.0 1.0 24.0 1.0 1.0 1.0 1.0 1.0
72 1.0 1.0 1.0 1.0 14.0 1.0 1.0 1.0 1.0 1.0 1.0 1.0 1.0 71.0 1.0 1.0 1.0 1.0 1.0 1.0 1.0 1.0 56.0 1.0 1.0 1.0 1.0 1.0 1.0 1.0 1.0 73.0 1.0 1.0 1.0 1.0 1.0 1.0 1.0 1.0 47.0 1.0 1.0 1.0 1.0 1.0 1.0 1.0 1.0 67.0 1.0 1.0 1.0 1.0 1.0 1.0 1.0 1.0 64.0 1.0 1.0 1.0 1.0 1.0 1.0 1.0 1.0 84.0 1.0 1.0 1.0 1.0
72 1.0 1.0 1.0 1.0 1.0 42.0 1.0 1.0 1.0 1.0 1.0 1.0 1.0 1.0 29.0 1.0 1.0 1.0 1.0 1.0 1.0 1.0 1.0 93.0 1.0 1.0 1.0 1.0 1.0 1.0 1.0 1.0 33.0 1.0 1.0 1.0 1.0 1.0 1.0 1.0 1.0 0.0 1.0 1.0 1.0 1.0 1.0 1.0 1.0 1.0 45.0 1.0 1.0 1.0 1.0 1.0 1.0 1.0 1.0 63.0 1.0 1.0 1.0 1.0 1.0 1.0 1.0 1.0 33.0 1.0 1.0 1.0
72 1.0 1.0 1.0 1.0 1.0 1.0 89.0 1.0 1.0 1.0 1.0 1.0 1.0 1.0 1.0 50.0 1.0 1.0 1.0 1.0 1.0 1.0 1.0 1.0 99.0 1.0 1.0 1.0 1.0 1.0 1.0 1.0 1.0 28.0 1.0 1.0 1.0 1.0 1.0 1.0 1.0 1.0 97.0 1.0 1.0 1.0 1.0 1.0 1.0 1.0 1.0 93.0 1.0 1.0 1.0 1.0 1.0 1.0 1.0 1.0 7.0 1.0 1.0 1.0 1.0 1.0 1.0 1.0 1.0 29.0 1.0 1.0
72 1.0 1.0 1.0 1.0 1.0 1.0 1.0 56.0 1.0 1.0 1.0 1.0 1.0 1.0 1.0 1.0 43.0 1.0 1.0 1.0 1.0 1.0 1.0 1.0 1.0 34.0 1.0 1.0 1.0 1.0 1.0 1.0 1.0 1.0 93.0 1.0 1.0 1.0 1.0 1.0 1.0 1.0 1.0 94.0 1.0 1.0 1.0 1.0 1.0 1.0 1.0 1.0 82.0 1.0 1.0 1.0 1.0 1.0 1.0 1.0 1.0 79.0 1.0 1.0 1.0 1.0 1.0 1.0 1.0 1.0 77.0 1.0
72 1.0 1.0 1.0 1.0 1.0 1.0 1.0 1.0 96.0 1.0 1.0 1.0 1.0 1.0 1.0 1.0 1.0 1.0 1.0 1.0 1.0 1.0 1.0 1.0 1.0 1.0 67.0 1.0 1.0 1.0 1.0 1.0 1.0 1.0 1.0 85.0 1.0 1.0 1.0 1.0 1.0 1.0 1.0 1.0 48.0 1.0 1.0 1.0 1.0 1.0 1.0 1.0 1.0 86.0 1.0 1.0 1.0 1.0 1.0 1.0 1.0 1.0 78.0 1.0 1.0 1.0 1.0 1.0 1.0 1.0 1.0 44.0
9 1.0 1.0 1.0 1.0 1.0 1.0 1.0 1.0 1.0
